NAME : instance_10_500
TYPE : TSP
DIMENSION : 10
EDGE_WEIGHT_TYPE : EUC_2D
LOWER : 0
UPPER : 100
NODE_COORD_SECTION
1 59.550734004 81.0303163016
2 64.8454638198 96.3498630095
3 6.3751459122 63.2145721465
4 46.9466050155 16.5207089158
5 80.9810208855 89.6559768822
6 26.4814577531 43.5687646968
7 58.4133869503 56.9531833986
8 57.6560881687 91.4216969628
9 39.1572987428 98.553759465
10 87.9344777903 71.4796462096
EOF
